50 8
255 286
140 305
777 215
214 543
700 576
534 520
666 699
126 171
633 612
794 161
190 402
581 731
436 788
252 489
276 193
839 125
850 922
549 138
597 595
661 667
487 983
663 494
742 189
334 445
363 935
734 603
117 273
856 257
480 51
566 814
674 572
706 106
857 847
459 19
164 187
685 501
573 721
485 112
525 107
775 289
576 672
703 618
686 576
226 391
463 902
778 408
300 594
834 149
730 622
111 886
